Test: fpga13_9_sat.cnf
Options: -no-inverting-opt -sym-usage-var-bump
WARNING: for repeatability, setting FPU to use double precision
============================[ Problem Statistics ]=============================
|                                                                             |
|  Number of symmetries:           26                                         |
|  Number of invertingSyms:         0                                         |
|  Number of variables:           176                                         |
|  Number of clauses:             759                                         |
|  Parse time:                   0.00 s                                       |
|                                                                             |
============================[ Search Statistics ]==============================
| Conflicts |          ORIGINAL         |          LEARNT          | Progress |
|           |    Vars  Clauses Literals |    Limit  Clauses Lit/Cl |          |
===============================================================================
|       100 |     176      759     2031 |      278      248     48 |  0.003 % |
===============================================================================
restarts              : 2
conflicts             : 125            (inf /sec)
symconflicts          : 26             (inf /sec)
decisions             : 327            (0.00 % random) (inf /sec)
propagations          : 2460           (inf /sec)
sympropagations       : 164            (inf /sec)
conflict literals     : 5034           (1.02 % deleted)
literals     : 5034           (1.02 % deleted)

HEURISTIC USAGES
random                : 0           
activity w/ lookahead : 0           
activity no lookahead : 0           
original sp           : 326         
sym count             : 0           

Memory used           : 5.00 MB
CPU time              : 0 s

SATISFIABLE
